

******************************************************************************
This program contains Ipopt, a library for large-scale nonlinear optimization.
 Ipopt is released as open source code under the Eclipse Public License (EPL).
         For more information visit http://projects.coin-or.org/Ipopt
******************************************************************************

This is Ipopt version 3.12.8, running with linear solver mumps.
NOTE: Other linear solvers might be more efficient (see Ipopt documentation).

Number of nonzeros in equality constraint Jacobian...:       11
Number of nonzeros in inequality constraint Jacobian.:        0
Number of nonzeros in Lagrangian Hessian.............:       15

Total number of variables............................:        5
                     variables with only lower bounds:        0
                variables with lower and upper bounds:        0
                     variables with only upper bounds:        0
Total number of equality constraints.................:        3
Total number of inequality constraints...............:        0
        inequality constraints with only lower bounds:        0
   inequality constraints with lower and upper bounds:        0
        inequality constraints with only upper bounds:        0

iter    objective    inf_pr   inf_du lg(mu)  ||d||  lg(rg) alpha_du alpha_pr  ls
   0 -6.0000000e+00 3.62e+00 7.66e-01  -1.0 0.00e+00    -  0.00e+00 0.00e+00   0
   1 -3.1572317e+00 4.25e-01 5.67e-01  -1.0 2.76e-01    -  1.00e+00 1.00e+00h  1
   2 -2.9310075e+00 1.14e-02 3.50e-03  -1.7 5.81e-02    -  1.00e+00 1.00e+00h  1
   3 -2.9197092e+00 6.94e-06 1.02e-05  -3.8 1.20e-03    -  1.00e+00 1.00e+00h  1
   4 -2.9197004e+00 5.56e-12 7.96e-12  -8.6 1.06e-06    -  1.00e+00 1.00e+00h  1

Number of Iterations....: 4

                                   (scaled)                 (unscaled)
Objective...............:  -2.9197004089696605e+00   -2.9197004089696605e+00
Dual infeasibility......:   7.9620754434017726e-12    7.9620754434017726e-12
Constraint violation....:   5.5599969073227840e-12    5.5599969073227840e-12
Complementarity.........:   0.0000000000000000e+00    0.0000000000000000e+00
Overall NLP error.......:   7.9620754434017726e-12    7.9620754434017726e-12


Number of objective function evaluations             = 5
Number of objective gradient evaluations             = 5
Number of equality constraint evaluations            = 5
Number of inequality constraint evaluations          = 0
Number of equality constraint Jacobian evaluations   = 5
Number of inequality constraint Jacobian evaluations = 0
Number of Lagrangian Hessian evaluations             = 4
Total CPU secs in IPOPT (w/o function evaluations)   =      0.002
Total CPU secs in NLP function evaluations           =      0.000

EXIT: Optimal Solution Found.
 
Ipopt 3.12.8: Optimal Solution Found
